DIMACS_lns/graph-1000-50.col
p edge 1000 1788
e 2 315
e 2 266
e 2 735
e 2 448
e 2 103
e 3 374
e 3 249
e 3 218
e 4 185
e 4 327
e 4 489
e 4 276
e 4 872
e 6 851
e 6 694
e 6 388
e 6 425
e 6 625
e 6 575
e 6 163
e 6 777
e 7 632
e 7 766
e 7 215
e 7 514
e 7 857
e 7 308
e 7 480
e 8 462
e 8 382
e 8 672
e 8 764
e 8 506
e 9 774
e 9 975
e 9 97
e 9 852
e 11 917
e 11 175
e 11 792
e 11 830
e 11 594
e 12 843
e 12 444
e 12 796
e 12 616
e 14 365
e 14 31
e 14 73
e 16 784
e 16 201
e 16 847
e 17 116
e 17 114
e 17 323
e 17 625
e 17 72
e 17 300
e 17 670
e 18 315
e 18 532
e 18 952
e 18 573
e 19 456
e 19 215
e 19 146
e 19 815
e 20 629
e 20 916
e 20 591
e 20 49
e 20 47
e 22 763
e 22 533
e 22 430
e 22 754
e 22 317
e 22 215
e 23 196
e 23 338
e 23 693
e 23 634
e 23 590
e 24 78
e 24 187
e 24 999
e 26 69
e 26 313
e 26 532
e 26 27
e 26 135
e 26 145
e 26 384
e 26 395
e 26 816
e 27 500
e 27 637
e 27 307
e 27 162
e 29 688
e 29 276
e 29 931
e 29 435
e 30 558
e 30 572
e 30 149
e 30 266
e 30 180
e 31 702
e 31 869
e 31 279
e 31 429
e 31 878
e 31 167
e 32 127
e 32 689
e 32 251
e 33 942
e 33 950
e 33 465
e 33 103
e 35 546
e 35 672
e 35 945
e 35 463
e 35 208
e 36 526
e 36 958
e 36 180
e 36 987
e 36 724
e 37 503
e 37 647
e 37 385
e 40 572
e 40 526
e 40 137
e 40 110
e 41 137
e 41 896
e 41 412
e 41 913
e 41 676
e 41 176
e 41 557
e 41 523
e 42 517
e 42 771
e 42 712
e 42 966
e 42 244
e 43 198
e 43 506
e 43 427
e 43 864
e 44 953
e 44 942
e 44 615
e 44 704
e 44 495
e 44 366
e 44 526
e 46 535
e 46 445
e 46 544
e 47 327
e 47 360
e 47 52
e 47 663
e 48 528
e 48 847
e 48 547
e 48 142
e 48 135
e 49 937
e 49 116
e 49 324
e 51 535
e 51 593
e 51 702
e 52 981
e 52 836
e 52 187
e 52 696
e 52 940
e 52 851
e 52 160
e 54 445
e 54 366
e 54 800
e 54 409
e 55 696
e 55 764
e 55 456
e 55 126
e 55 868
e 58 390
e 58 141
e 58 775
e 58 806
e 62 791
e 62 713
e 62 210
e 62 805
e 63 677
e 63 834
e 63 164
e 63 928
e 63 405
e 65 81
e 65 821
e 65 986
e 65 687
e 65 530
e 65 990
e 65 960
e 65 245
e 66 666
e 66 985
e 66 164
e 67 484
e 67 169
e 67 913
e 67 377
e 67 821
e 67 250
e 68 961
e 68 173
e 68 160
e 68 245
e 69 803
e 69 915
e 71 509
e 71 681
e 71 524
e 71 792
e 71 481
e 71 814
e 72 323
e 72 421
e 73 607
e 73 649
e 73 263
e 73 166
e 73 366
e 73 338
e 74 180
e 74 805
e 74 962
e 74 145
e 75 671
e 75 304
e 75 449
e 75 116
e 77 845
e 77 454
e 77 299
e 77 221
e 78 807
e 78 133
e 78 481
e 78 882
e 78 862
e 78 912
e 79 745
e 79 632
e 79 297
e 79 581
e 81 723
e 81 822
e 81 151
e 83 94
e 83 365
e 83 245
e 83 133
e 83 102
e 83 204
e 87 878
e 87 444
e 87 529
e 88 91
e 88 647
e 88 112
e 88 856
e 88 220
e 89 839
e 89 145
e 89 406
e 90 143
e 90 257
e 90 947
e 90 741
e 91 730
e 91 494
e 91 721
e 91 871
e 91 261
e 93 706
e 93 129
e 93 870
e 93 817
e 94 794
e 94 903
e 94 595
e 94 487
e 94 175
e 94 810
e 96 285
e 96 148
e 96 444
e 97 575
e 97 901
e 97 124
e 98 820
e 98 997
e 98 741
e 98 762
e 98 248
e 99 882
e 99 818
e 99 656
e 99 181
e 99 543
e 100 396
e 100 228
e 100 485
e 100 791
e 100 854
e 100 613
e 100 324
e 102 333
e 102 938
e 103 276
e 103 170
e 103 144
e 103 186
e 103 881
e 104 424
e 104 153
e 104 303
e 105 803
e 105 622
e 105 405
e 105 727
e 106 365
e 106 200
e 106 193
e 108 683
e 108 603
e 108 916
e 109 627
e 109 650
e 109 467
e 110 198
e 110 795
e 110 650
e 111 176
e 111 484
e 111 869
e 111 859
e 111 434
e 112 619
e 112 149
e 112 366
e 112 896
e 112 235
e 114 394
e 114 896
e 114 122
e 116 457
e 116 260
e 116 303
e 116 975
e 119 341
e 119 539
e 119 170
e 121 315
e 121 596
e 121 967
e 121 206
e 121 642
e 121 816
e 122 590
e 122 976
e 122 579
e 124 157
e 124 415
e 125 359
e 125 413
e 125 337
e 125 976
e 126 429
e 126 806
e 126 481
e 126 295
e 127 195
e 127 308
e 127 901
e 127 229
e 127 432
e 129 889
e 129 622
e 129 999
e 129 223
e 129 138
e 131 291
e 131 822
e 131 562
e 131 774
e 133 496
e 133 240
e 135 460
e 135 795
e 135 510
e 137 258
e 137 544
e 137 877
e 137 843
e 137 485
e 138 970
e 138 143
e 138 215
e 138 462
e 138 249
e 138 140
e 139 779
e 139 363
e 139 638
e 139 739
e 139 854
e 139 144
e 139 303
e 139 661
e 139 855
e 140 235
e 140 776
e 140 904
e 140 795
e 140 638
e 140 917
e 140 693
e 141 153
e 141 594
e 141 997
e 141 510
e 142 828
e 142 201
e 142 399
e 142 421
e 142 235
e 142 601
e 143 622
e 143 243
e 143 564
e 143 433
e 143 270
e 144 299
e 144 264
e 144 945
e 144 812
e 144 478
e 145 279
e 145 526
e 145 165
e 145 229
e 145 655
e 145 531
e 146 888
e 146 243
e 148 613
e 148 834
e 148 878
e 148 794
e 149 762
e 149 804
e 149 513
e 150 727
e 150 325
e 150 557
e 150 560
e 151 350
e 151 889
e 151 733
e 151 374
e 151 230
e 152 818
e 152 472
e 152 768
e 153 850
e 157 856
e 157 295
e 157 460
e 157 972
e 157 663
e 159 540
e 159 926
e 159 673
e 159 723
e 159 794
e 159 575
e 159 333
e 159 566
e 160 382
e 160 372
e 160 169
e 160 191
e 160 697
e 160 836
e 161 276
e 161 767
e 161 958
e 162 492
e 162 895
e 162 834
e 163 314
e 163 933
e 163 523
e 163 663
e 163 517
e 164 843
e 164 841
e 165 887
e 165 732
e 165 580
e 165 170
e 165 558
e 166 463
e 166 996
e 167 361
e 167 455
e 167 186
e 167 592
e 168 483
e 168 201
e 168 402
e 168 297
e 168 321
e 168 910
e 168 601
e 168 401
e 169 173
e 169 933
e 169 755
e 170 226
e 173 850
e 173 456
e 173 362
e 173 971
e 175 731
e 175 420
e 176 196
e 176 327
e 176 378
e 176 878
e 176 789
e 176 822
e 177 810
e 177 765
e 177 465
e 177 904
e 177 205
e 177 999
e 180 292
e 180 933
e 180 732
e 181 289
e 181 782
e 181 958
e 181 203
e 182 307
e 182 574
e 182 650
e 183 774
e 183 821
e 183 500
e 183 796
e 185 994
e 185 329
e 185 876
e 185 806
e 186 974
e 186 408
e 186 687
e 186 710
e 186 812
e 187 712
e 188 797
e 188 632
e 188 195
e 188 912
e 191 982
e 191 594
e 191 587
e 191 890
e 193 904
e 193 392
e 193 332
e 193 258
e 193 648
e 193 644
e 193 627
e 195 414
e 195 779
e 195 214
e 195 905
e 196 661
e 196 265
e 198 487
e 198 574
e 198 861
e 198 352
e 200 607
e 200 477
e 200 245
e 201 649
e 203 698
e 203 693
e 203 437
e 203 232
e 204 581
e 204 356
e 204 938
e 204 543
e 204 510
e 205 924
e 205 299
e 206 976
e 206 581
e 206 297
e 207 951
e 207 724
e 207 399
e 207 284
e 208 882
e 208 443
e 209 363
e 209 899
e 209 877
e 210 257
e 210 701
e 211 402
e 211 946
e 211 865
e 211 723
e 211 520
e 212 491
e 212 359
e 212 828
e 212 973
e 212 447
e 213 494
e 213 792
e 213 904
e 214 534
e 214 405
e 214 354
e 215 371
e 215 325
e 215 223
e 216 829
e 216 841
e 216 758
e 217 599
e 217 877
e 217 519
e 217 894
e 217 641
e 218 929
e 218 655
e 218 740
e 218 656
e 220 337
e 220 822
e 220 990
e 220 623
e 221 337
e 221 514
e 222 292
e 222 910
e 222 687
e 222 702
e 222 783
e 223 673
e 225 967
e 225 513
e 225 879
e 226 555
e 226 595
e 226 388
e 227 456
e 227 540
e 227 279
e 228 779
e 228 578
e 228 740
e 228 571
e 229 486
e 229 593
e 230 472
e 230 416
e 232 414
e 232 855
e 232 498
e 233 299
e 233 738
e 233 240
e 233 739
e 234 528
e 234 681
e 234 890
e 234 637
e 234 856
e 235 701
e 237 681
e 237 238
e 237 245
e 237 704
e 238 599
e 238 377
e 238 314
e 238 384
e 238 623
e 239 833
e 239 295
e 239 977
e 239 712
e 240 472
e 240 786
e 241 602
e 241 949
e 241 385
e 241 671
e 242 374
e 242 455
e 242 801
e 243 913
e 243 579
e 243 268
e 244 370
e 244 747
e 244 872
e 245 636
e 245 399
e 245 373
e 245 882
e 245 584
e 246 378
e 246 860
e 246 747
e 248 784
e 248 966
e 248 433
e 249 501
e 249 991
e 249 993
e 249 989
e 249 360
e 249 374
e 249 528
e 250 519
e 250 396
e 251 255
e 251 901
e 255 485
e 255 455
e 255 341
e 257 427
e 257 732
e 257 384
e 257 730
e 258 346
e 258 800
e 259 586
e 259 518
e 259 856
e 260 486
e 260 469
e 260 361
e 260 690
e 260 863
e 261 467
e 261 269
e 263 874
e 263 265
e 263 584
e 263 985
e 263 379
e 263 917
e 264 525
e 264 615
e 264 451
e 265 697
e 265 747
e 266 525
e 266 662
e 266 428
e 266 447
e 268 278
e 268 960
e 268 684
e 269 455
e 269 897
e 269 669
e 269 905
e 269 772
e 270 503
e 270 778
e 270 708
e 270 279
e 271 865
e 271 378
e 271 272
e 272 277
e 272 304
e 272 834
e 272 372
e 273 595
e 273 654
e 273 587
e 273 593
e 275 906
e 275 308
e 275 584
e 275 723
e 276 642
e 276 884
e 276 739
e 277 674
e 277 634
e 277 690
e 278 826
e 278 776
e 278 784
e 279 341
e 279 922
e 279 436
e 279 373
e 280 436
e 280 401
e 280 795
e 280 415
e 280 281
e 281 803
e 281 963
e 281 546
e 283 393
e 283 810
e 283 801
e 283 284
e 283 762
e 283 537
e 284 481
e 284 413
e 284 301
e 284 784
e 284 758
e 284 475
e 284 631
e 285 744
e 285 590
e 285 912
e 285 494
e 289 880
e 289 444
e 289 789
e 289 688
e 291 540
e 291 444
e 291 640
e 291 617
e 292 613
e 292 308
e 292 626
e 292 767
e 292 853
e 295 572
e 295 393
e 295 615
e 295 434
e 295 475
e 296 694
e 296 516
e 296 996
e 297 746
e 297 807
e 297 338
e 297 949
e 299 543
e 299 417
e 299 430
e 299 434
e 299 436
e 300 817
e 300 534
e 300 347
e 300 509
e 301 557
e 301 427
e 301 812
e 301 393
e 301 826
e 301 882
e 303 886
e 303 848
e 303 509
e 303 630
e 304 974
e 304 464
e 304 904
e 304 623
e 306 748
e 306 921
e 306 727
e 306 940
e 306 670
e 307 993
e 308 888
e 308 391
e 309 357
e 309 846
e 309 908
e 311 828
e 311 981
e 311 934
e 313 771
e 313 466
e 313 642
e 313 667
e 313 886
e 314 385
e 314 430
e 315 573
e 315 566
e 315 321
e 315 479
e 315 961
e 317 409
e 317 399
e 317 880
e 317 981
e 319 918
e 319 366
e 319 544
e 319 865
e 319 477
e 320 839
e 320 684
e 320 999
e 320 960
e 321 985
e 323 694
e 323 467
e 323 473
e 323 971
e 323 460
e 323 851
e 324 836
e 324 414
e 324 684
e 324 666
e 325 977
e 325 922
e 325 873
e 327 363
e 328 495
e 328 851
e 328 840
e 328 394
e 328 454
e 328 535
e 328 460
e 329 641
e 329 800
e 332 696
e 332 472
e 332 785
e 332 342
e 332 792
e 333 771
e 333 627
e 333 994
e 333 572
e 333 586
e 335 372
e 335 648
e 335 916
e 335 661
e 337 390
e 337 578
e 337 830
e 338 649
e 338 952
e 341 988
e 341 473
e 341 666
e 341 798
e 341 596
e 341 876
e 341 509
e 342 999
e 342 531
e 342 951
e 342 985
e 342 449
e 342 435
e 346 708
e 346 364
e 346 990
e 346 590
e 346 961
e 347 963
e 347 797
e 350 785
e 350 359
e 351 609
e 351 966
e 351 714
e 351 903
e 352 860
e 352 745
e 354 518
e 354 816
e 354 981
e 355 735
e 355 507
e 355 905
e 355 623
e 356 638
e 356 594
e 357 616
e 357 706
e 358 590
e 358 634
e 358 528
e 359 623
e 359 555
e 359 734
e 359 487
e 359 731
e 359 401
e 360 536
e 361 693
e 361 585
e 362 979
e 362 970
e 362 623
e 362 674
e 364 425
e 364 445
e 365 730
e 365 647
e 365 832
e 365 949
e 369 607
e 369 601
e 369 624
e 369 529
e 370 975
e 370 744
e 370 602
e 371 904
e 371 460
e 371 637
e 372 822
e 372 941
e 373 811
e 373 629
e 374 738
e 374 415
e 374 975
e 376 525
e 376 800
e 376 917
e 376 704
e 376 425
e 377 947
e 377 974
e 377 446
e 377 915
e 378 881
e 378 952
e 378 972
e 378 748
e 379 860
e 379 893
e 379 894
e 381 537
e 381 718
e 381 609
e 381 522
e 382 462
e 382 826
e 382 746
e 384 749
e 384 946
e 385 902
e 385 905
e 385 676
e 385 942
e 388 636
e 390 865
e 390 786
e 390 465
e 390 613
e 391 673
e 391 739
e 392 769
e 392 922
e 392 988
e 393 508
e 393 746
e 393 394
e 394 562
e 394 950
e 394 581
e 395 746
e 395 863
e 396 538
e 396 687
e 399 785
e 399 537
e 400 979
e 400 958
e 400 862
e 400 701
e 401 620
e 402 514
e 402 874
e 402 693
e 402 935
e 402 583
e 403 602
e 403 478
e 403 699
e 403 697
e 405 602
e 405 632
e 405 581
e 406 859
e 406 912
e 406 662
e 407 481
e 407 464
e 407 628
e 407 456
e 407 806
e 408 819
e 408 433
e 408 787
e 409 562
e 409 851
e 412 862
e 412 564
e 413 776
e 413 935
e 414 719
e 414 815
e 414 454
e 415 683
e 415 557
e 415 572
e 415 735
e 415 540
e 416 861
e 416 762
e 417 573
e 417 697
e 420 447
e 420 684
e 421 494
e 421 543
e 424 981
e 424 703
e 425 817
e 426 853
e 426 532
e 426 986
e 426 957
e 426 965
e 427 951
e 428 995
e 428 733
e 428 894
e 428 792
e 429 485
e 429 706
e 430 665
e 430 434
e 430 947
e 432 579
e 432 698
e 434 828
e 434 891
e 435 603
e 435 641
e 435 473
e 436 737
e 437 501
e 437 818
e 437 740
e 443 743
e 443 852
e 444 743
e 444 626
e 444 783
e 444 665
e 446 466
e 446 798
e 446 488
e 446 894
e 446 509
e 446 734
e 446 563
e 447 543
e 447 640
e 448 946
e 448 669
e 449 950
e 449 644
e 449 712
e 451 877
e 451 862
e 454 650
e 454 497
e 454 489
e 455 918
e 455 868
e 455 578
e 456 558
e 456 910
e 456 750
e 456 806
e 457 945
e 457 630
e 457 521
e 457 683
e 457 620
e 460 888
e 460 738
e 461 465
e 461 714
e 461 574
e 461 957
e 461 834
e 462 500
e 462 888
e 463 520
e 463 744
e 463 768
e 463 921
e 463 469
e 463 895
e 464 697
e 464 814
e 464 591
e 464 767
e 465 888
e 465 699
e 466 908
e 466 873
e 466 889
e 467 791
e 467 813
e 468 571
e 468 926
e 468 867
e 469 997
e 469 676
e 472 914
e 472 624
e 473 967
e 473 975
e 473 750
e 473 767
e 475 542
e 476 516
e 476 624
e 476 521
e 477 971
e 478 538
e 478 664
e 479 807
e 479 708
e 479 769
e 479 945
e 480 617
e 480 529
e 480 897
e 480 867
e 482 538
e 482 813
e 482 833
e 483 496
e 483 636
e 484 703
e 485 933
e 485 618
e 486 625
e 487 599
e 488 841
e 488 899
e 488 812
e 488 891
e 489 931
e 489 848
e 491 965
e 491 758
e 492 887
e 492 719
e 495 733
e 495 535
e 495 785
e 496 696
e 496 890
e 497 902
e 497 519
e 498 831
e 498 940
e 500 542
e 500 648
e 500 966
e 500 973
e 501 558
e 501 708
e 503 628
e 503 507
e 506 845
e 506 773
e 507 710
e 507 557
e 508 995
e 508 533
e 510 930
e 510 807
e 511 607
e 511 797
e 511 794
e 512 763
e 512 627
e 512 635
e 513 829
e 514 519
e 516 812
e 516 730
e 517 830
e 517 558
e 518 805
e 519 547
e 519 644
e 519 721
e 520 829
e 520 739
e 520 945
e 520 990
e 520 574
e 520 737
e 521 642
e 521 767
e 522 803
e 522 912
e 522 744
e 522 969
e 523 530
e 523 580
e 524 810
e 524 775
e 525 999
e 526 941
e 526 787
e 528 677
e 528 537
e 529 609
e 529 884
e 529 762
e 530 928
e 530 821
e 531 559
e 531 840
e 531 829
e 532 669
e 533 538
e 533 643
e 533 586
e 533 580
e 534 775
e 534 563
e 535 614
e 535 734
e 535 953
e 536 798
e 536 963
e 538 772
e 538 741
e 538 796
e 538 913
e 538 542
e 539 997
e 539 626
e 540 583
e 540 638
e 540 566
e 540 998
e 540 913
e 540 930
e 542 702
e 544 922
e 544 851
e 546 863
e 547 584
e 547 900
e 555 560
e 555 833
e 555 953
e 557 686
e 557 672
e 557 855
e 558 881
e 558 868
e 558 859
e 559 804
e 559 913
e 560 578
e 560 777
e 560 901
e 560 743
e 562 982
e 562 644
e 562 578
e 562 584
e 563 573
e 564 723
e 564 916
e 564 903
e 564 704
e 566 666
e 567 741
e 567 783
e 567 895
e 570 895
e 570 746
e 570 602
e 570 861
e 571 595
e 571 786
e 572 951
e 573 935
e 573 887
e 574 806
e 574 589
e 575 949
e 575 770
e 575 880
e 575 618
e 577 991
e 577 764
e 577 623
e 578 857
e 578 962
e 578 947
e 579 975
e 580 743
e 583 826
e 583 910
e 584 619
e 585 613
e 585 646
e 585 745
e 586 642
e 587 640
e 587 957
e 587 929
e 587 890
e 589 943
e 589 703
e 590 749
e 590 741
e 591 873
e 592 876
e 592 975
e 593 755
e 593 848
e 593 961
e 594 979
e 595 627
e 596 667
e 602 986
e 602 631
e 602 938
e 603 934
e 603 713
e 603 834
e 607 914
e 613 993
e 614 721
e 614 854
e 614 646
e 616 950
e 616 816
e 617 771
e 617 888
e 617 872
e 617 673
e 618 674
e 618 893
e 619 874
e 619 830
e 619 622
e 620 890
e 620 936
e 620 698
e 623 836
e 624 930
e 625 763
e 626 879
e 626 646
e 626 962
e 627 630
e 627 718
e 627 814
e 628 806
e 628 906
e 628 771
e 628 670
e 629 950
e 630 698
e 630 652
e 630 690
e 631 667
e 631 733
e 632 987
e 634 722
e 634 813
e 635 941
e 635 659
e 637 817
e 638 745
e 638 643
e 638 936
e 640 890
e 642 901
e 643 826
e 643 811
e 643 993
e 644 698
e 644 739
e 644 727
e 645 989
e 645 903
e 645 850
e 646 937
e 646 996
e 646 811
e 647 667
e 647 936
e 649 650
e 649 949
e 649 694
e 649 953
e 650 744
e 652 902
e 652 997
e 654 937
e 654 704
e 655 733
e 655 970
e 655 735
e 655 874
e 656 994
e 659 945
e 659 831
e 659 864
e 661 812
e 661 820
e 661 770
e 661 893
e 662 811
e 662 895
e 662 900
e 663 949
e 663 938
e 664 947
e 664 768
e 664 719
e 664 716
e 664 777
e 664 967
e 664 801
e 665 886
e 666 800
e 667 721
e 669 833
e 670 893
e 671 807
e 671 792
e 672 993
e 672 676
e 673 871
e 673 926
e 674 869
e 677 789
e 677 943
e 677 985
e 681 772
e 683 718
e 683 963
e 684 989
e 684 936
e 684 928
e 686 744
e 686 931
e 686 924
e 686 908
e 687 862
e 688 900
e 688 716
e 689 768
e 689 993
e 689 894
e 693 713
e 694 785
e 694 977
e 694 832
e 697 822
e 697 813
e 698 850
e 698 998
e 698 967
e 698 846
e 698 943
e 699 755
e 701 758
e 701 821
e 702 991
e 702 861
e 703 755
e 706 766
e 706 914
e 708 972
e 710 768
e 710 721
e 710 765
e 712 848
e 713 971
e 714 853
e 716 876
e 719 888
e 721 813
e 722 905
e 722 887
e 723 871
e 723 847
e 724 836
e 724 929
e 730 770
e 730 973
e 730 764
e 731 843
e 732 741
e 733 852
e 733 903
e 734 744
e 735 871
e 735 848
e 735 779
e 737 982
e 738 914
e 738 806
e 739 779
e 741 889
e 743 764
e 743 775
e 743 921
e 744 789
e 744 822
e 745 929
e 745 801
e 745 918
e 746 997
e 748 839
e 749 933
e 750 941
e 754 936
e 754 881
e 758 807
e 761 971
e 761 938
e 761 884
e 762 926
e 763 773
e 763 915
e 765 933
e 766 797
e 769 836
e 771 903
e 773 975
e 774 819
e 774 792
e 775 916
e 777 974
e 778 914
e 778 869
e 782 857
e 782 958
e 783 965
e 783 855
e 785 795
e 785 863
e 787 831
e 789 851
e 789 846
e 791 820
e 795 864
e 795 877
e 795 994
e 798 987
e 801 857
e 801 821
e 804 826
e 805 957
e 806 851
e 806 821
e 810 951
e 812 995
e 814 905
e 815 935
e 817 988
e 819 893
e 821 940
e 823 938
e 823 882
e 823 861
e 826 889
e 829 878
e 829 869
e 830 847
e 832 895
e 833 879
e 840 950
e 841 947
e 841 914
e 845 897
e 845 905
e 845 891
e 847 933
e 847 895
e 847 853
e 853 921
e 854 922
e 856 900
e 861 999
e 862 884
e 864 867
e 865 963
e 867 976
e 867 967
e 869 966
e 870 990
e 870 877
e 874 913
e 874 896
e 877 991
e 877 934
e 878 917
e 881 891
e 882 936
e 886 922
e 888 890
e 890 951
e 893 934
e 893 986
e 893 906
e 899 981
e 899 905
e 901 969
e 903 985
e 905 924
e 908 963
e 912 988
e 914 996
e 914 975
e 915 952
e 931 937
e 935 986
e 935 960
e 937 998
e 941 962
e 947 988
e 950 969
