txt_Ins/graph-1000-50.txt
n 1000
e 1 314
e 1 265
e 1 734
e 1 447
e 1 102
e 2 373
e 2 248
e 2 217
e 3 184
e 3 326
e 3 488
e 3 275
e 3 871
e 5 850
e 5 693
e 5 387
e 5 424
e 5 624
e 5 574
e 5 162
e 5 776
e 6 631
e 6 765
e 6 214
e 6 513
e 6 856
e 6 307
e 6 479
e 7 461
e 7 381
e 7 671
e 7 763
e 7 505
e 8 773
e 8 974
e 8 96
e 8 851
e 10 916
e 10 174
e 10 791
e 10 829
e 10 593
e 11 842
e 11 443
e 11 795
e 11 615
e 13 364
e 13 30
e 13 72
e 15 783
e 15 200
e 15 846
e 16 115
e 16 113
e 16 322
e 16 624
e 16 71
e 16 299
e 16 669
e 17 314
e 17 531
e 17 951
e 17 572
e 18 455
e 18 214
e 18 145
e 18 814
e 19 628
e 19 915
e 19 590
e 19 48
e 19 46
e 21 762
e 21 532
e 21 429
e 21 753
e 21 316
e 21 214
e 22 195
e 22 337
e 22 692
e 22 633
e 22 589
e 23 77
e 23 186
e 23 998
e 25 68
e 25 312
e 25 531
e 25 26
e 25 134
e 25 144
e 25 383
e 25 394
e 25 815
e 26 499
e 26 636
e 26 306
e 26 161
e 28 687
e 28 275
e 28 930
e 28 434
e 29 557
e 29 571
e 29 148
e 29 265
e 29 179
e 30 701
e 30 868
e 30 278
e 30 428
e 30 877
e 30 166
e 31 126
e 31 688
e 31 250
e 32 941
e 32 949
e 32 464
e 32 102
e 34 545
e 34 671
e 34 944
e 34 462
e 34 207
e 35 525
e 35 957
e 35 179
e 35 986
e 35 723
e 36 502
e 36 646
e 36 384
e 39 571
e 39 525
e 39 136
e 39 109
e 40 136
e 40 895
e 40 411
e 40 912
e 40 675
e 40 175
e 40 556
e 40 522
e 41 516
e 41 770
e 41 711
e 41 965
e 41 243
e 42 197
e 42 505
e 42 426
e 42 863
e 43 952
e 43 941
e 43 614
e 43 703
e 43 494
e 43 365
e 43 525
e 45 534
e 45 444
e 45 543
e 46 326
e 46 359
e 46 51
e 46 662
e 47 527
e 47 846
e 47 546
e 47 141
e 47 134
e 48 936
e 48 115
e 48 323
e 50 534
e 50 592
e 50 701
e 51 980
e 51 835
e 51 186
e 51 695
e 51 939
e 51 850
e 51 159
e 53 444
e 53 365
e 53 799
e 53 408
e 54 695
e 54 763
e 54 455
e 54 125
e 54 867
e 57 389
e 57 140
e 57 774
e 57 805
e 61 790
e 61 712
e 61 209
e 61 804
e 62 676
e 62 833
e 62 163
e 62 927
e 62 404
e 64 80
e 64 820
e 64 985
e 64 686
e 64 529
e 64 989
e 64 959
e 64 244
e 65 665
e 65 984
e 65 163
e 66 483
e 66 168
e 66 912
e 66 376
e 66 820
e 66 249
e 67 960
e 67 172
e 67 159
e 67 244
e 68 802
e 68 914
e 70 508
e 70 680
e 70 523
e 70 791
e 70 480
e 70 813
e 71 322
e 71 420
e 72 606
e 72 648
e 72 262
e 72 165
e 72 365
e 72 337
e 73 179
e 73 804
e 73 961
e 73 144
e 74 670
e 74 303
e 74 448
e 74 115
e 76 844
e 76 453
e 76 298
e 76 220
e 77 806
e 77 132
e 77 480
e 77 881
e 77 861
e 77 911
e 78 744
e 78 631
e 78 296
e 78 580
e 80 722
e 80 821
e 80 150
e 82 93
e 82 364
e 82 244
e 82 132
e 82 101
e 82 203
e 86 877
e 86 443
e 86 528
e 87 90
e 87 646
e 87 111
e 87 855
e 87 219
e 88 838
e 88 144
e 88 405
e 89 142
e 89 256
e 89 946
e 89 740
e 90 729
e 90 493
e 90 720
e 90 870
e 90 260
e 92 705
e 92 128
e 92 869
e 92 816
e 93 793
e 93 902
e 93 594
e 93 486
e 93 174
e 93 809
e 95 284
e 95 147
e 95 443
e 96 574
e 96 900
e 96 123
e 97 819
e 97 996
e 97 740
e 97 761
e 97 247
e 98 881
e 98 817
e 98 655
e 98 180
e 98 542
e 99 395
e 99 227
e 99 484
e 99 790
e 99 853
e 99 612
e 99 323
e 101 332
e 101 937
e 102 275
e 102 169
e 102 143
e 102 185
e 102 880
e 103 423
e 103 152
e 103 302
e 104 802
e 104 621
e 104 404
e 104 726
e 105 364
e 105 199
e 105 192
e 107 682
e 107 602
e 107 915
e 108 626
e 108 649
e 108 466
e 109 197
e 109 794
e 109 649
e 110 175
e 110 483
e 110 868
e 110 858
e 110 433
e 111 618
e 111 148
e 111 365
e 111 895
e 111 234
e 113 393
e 113 895
e 113 121
e 115 456
e 115 259
e 115 302
e 115 974
e 118 340
e 118 538
e 118 169
e 120 314
e 120 595
e 120 966
e 120 205
e 120 641
e 120 815
e 121 589
e 121 975
e 121 578
e 123 156
e 123 414
e 124 358
e 124 412
e 124 336
e 124 975
e 125 428
e 125 805
e 125 480
e 125 294
e 126 194
e 126 307
e 126 900
e 126 228
e 126 431
e 128 888
e 128 621
e 128 998
e 128 222
e 128 137
e 130 290
e 130 821
e 130 561
e 130 773
e 132 495
e 132 239
e 134 459
e 134 794
e 134 509
e 136 257
e 136 543
e 136 876
e 136 842
e 136 484
e 137 969
e 137 142
e 137 214
e 137 461
e 137 248
e 137 139
e 138 778
e 138 362
e 138 637
e 138 738
e 138 853
e 138 143
e 138 302
e 138 660
e 138 854
e 139 234
e 139 775
e 139 903
e 139 794
e 139 637
e 139 916
e 139 692
e 140 152
e 140 593
e 140 996
e 140 509
e 141 827
e 141 200
e 141 398
e 141 420
e 141 234
e 141 600
e 142 621
e 142 242
e 142 563
e 142 432
e 142 269
e 143 298
e 143 263
e 143 944
e 143 811
e 143 477
e 144 278
e 144 525
e 144 164
e 144 228
e 144 654
e 144 530
e 145 887
e 145 242
e 147 612
e 147 833
e 147 877
e 147 793
e 148 761
e 148 803
e 148 512
e 149 726
e 149 324
e 149 556
e 149 559
e 150 349
e 150 888
e 150 732
e 150 373
e 150 229
e 151 817
e 151 471
e 151 767
e 152 849
e 156 855
e 156 294
e 156 459
e 156 971
e 156 662
e 158 539
e 158 925
e 158 672
e 158 722
e 158 793
e 158 574
e 158 332
e 158 565
e 159 381
e 159 371
e 159 168
e 159 190
e 159 696
e 159 835
e 160 275
e 160 766
e 160 957
e 161 491
e 161 894
e 161 833
e 162 313
e 162 932
e 162 522
e 162 662
e 162 516
e 163 842
e 163 840
e 164 886
e 164 731
e 164 579
e 164 169
e 164 557
e 165 462
e 165 995
e 166 360
e 166 454
e 166 185
e 166 591
e 167 482
e 167 200
e 167 401
e 167 296
e 167 320
e 167 909
e 167 600
e 167 400
e 168 172
e 168 932
e 168 754
e 169 225
e 172 849
e 172 455
e 172 361
e 172 970
e 174 730
e 174 419
e 175 195
e 175 326
e 175 377
e 175 877
e 175 788
e 175 821
e 176 809
e 176 764
e 176 464
e 176 903
e 176 204
e 176 998
e 179 291
e 179 932
e 179 731
e 180 288
e 180 781
e 180 957
e 180 202
e 181 306
e 181 573
e 181 649
e 182 773
e 182 820
e 182 499
e 182 795
e 184 993
e 184 328
e 184 875
e 184 805
e 185 973
e 185 407
e 185 686
e 185 709
e 185 811
e 186 711
e 187 796
e 187 631
e 187 194
e 187 911
e 190 981
e 190 593
e 190 586
e 190 889
e 192 903
e 192 391
e 192 331
e 192 257
e 192 647
e 192 643
e 192 626
e 194 413
e 194 778
e 194 213
e 194 904
e 195 660
e 195 264
e 197 486
e 197 573
e 197 860
e 197 351
e 199 606
e 199 476
e 199 244
e 200 648
e 202 697
e 202 692
e 202 436
e 202 231
e 203 580
e 203 355
e 203 937
e 203 542
e 203 509
e 204 923
e 204 298
e 205 975
e 205 580
e 205 296
e 206 950
e 206 723
e 206 398
e 206 283
e 207 881
e 207 442
e 208 362
e 208 898
e 208 876
e 209 256
e 209 700
e 210 401
e 210 945
e 210 864
e 210 722
e 210 519
e 211 490
e 211 358
e 211 827
e 211 972
e 211 446
e 212 493
e 212 791
e 212 903
e 213 533
e 213 404
e 213 353
e 214 370
e 214 324
e 214 222
e 215 828
e 215 840
e 215 757
e 216 598
e 216 876
e 216 518
e 216 893
e 216 640
e 217 928
e 217 654
e 217 739
e 217 655
e 219 336
e 219 821
e 219 989
e 219 622
e 220 336
e 220 513
e 221 291
e 221 909
e 221 686
e 221 701
e 221 782
e 222 672
e 224 966
e 224 512
e 224 878
e 225 554
e 225 594
e 225 387
e 226 455
e 226 539
e 226 278
e 227 778
e 227 577
e 227 739
e 227 570
e 228 485
e 228 592
e 229 471
e 229 415
e 231 413
e 231 854
e 231 497
e 232 298
e 232 737
e 232 239
e 232 738
e 233 527
e 233 680
e 233 889
e 233 636
e 233 855
e 234 700
e 236 680
e 236 237
e 236 244
e 236 703
e 237 598
e 237 376
e 237 313
e 237 383
e 237 622
e 238 832
e 238 294
e 238 976
e 238 711
e 239 471
e 239 785
e 240 601
e 240 948
e 240 384
e 240 670
e 241 373
e 241 454
e 241 800
e 242 912
e 242 578
e 242 267
e 243 369
e 243 746
e 243 871
e 244 635
e 244 398
e 244 372
e 244 881
e 244 583
e 245 377
e 245 859
e 245 746
e 247 783
e 247 965
e 247 432
e 248 500
e 248 990
e 248 992
e 248 988
e 248 359
e 248 373
e 248 527
e 249 518
e 249 395
e 250 254
e 250 900
e 254 484
e 254 454
e 254 340
e 256 426
e 256 731
e 256 383
e 256 729
e 257 345
e 257 799
e 258 585
e 258 517
e 258 855
e 259 485
e 259 468
e 259 360
e 259 689
e 259 862
e 260 466
e 260 268
e 262 873
e 262 264
e 262 583
e 262 984
e 262 378
e 262 916
e 263 524
e 263 614
e 263 450
e 264 696
e 264 746
e 265 524
e 265 661
e 265 427
e 265 446
e 267 277
e 267 959
e 267 683
e 268 454
e 268 896
e 268 668
e 268 904
e 268 771
e 269 502
e 269 777
e 269 707
e 269 278
e 270 864
e 270 377
e 270 271
e 271 276
e 271 303
e 271 833
e 271 371
e 272 594
e 272 653
e 272 586
e 272 592
e 274 905
e 274 307
e 274 583
e 274 722
e 275 641
e 275 883
e 275 738
e 276 673
e 276 633
e 276 689
e 277 825
e 277 775
e 277 783
e 278 340
e 278 921
e 278 435
e 278 372
e 279 435
e 279 400
e 279 794
e 279 414
e 279 280
e 280 802
e 280 962
e 280 545
e 282 392
e 282 809
e 282 800
e 282 283
e 282 761
e 282 536
e 283 480
e 283 412
e 283 300
e 283 783
e 283 757
e 283 474
e 283 630
e 284 743
e 284 589
e 284 911
e 284 493
e 288 879
e 288 443
e 288 788
e 288 687
e 290 539
e 290 443
e 290 639
e 290 616
e 291 612
e 291 307
e 291 625
e 291 766
e 291 852
e 294 571
e 294 392
e 294 614
e 294 433
e 294 474
e 295 693
e 295 515
e 295 995
e 296 745
e 296 806
e 296 337
e 296 948
e 298 542
e 298 416
e 298 429
e 298 433
e 298 435
e 299 816
e 299 533
e 299 346
e 299 508
e 300 556
e 300 426
e 300 811
e 300 392
e 300 825
e 300 881
e 302 885
e 302 847
e 302 508
e 302 629
e 303 973
e 303 463
e 303 903
e 303 622
e 305 747
e 305 920
e 305 726
e 305 939
e 305 669
e 306 992
e 307 887
e 307 390
e 308 356
e 308 845
e 308 907
e 310 827
e 310 980
e 310 933
e 312 770
e 312 465
e 312 641
e 312 666
e 312 885
e 313 384
e 313 429
e 314 572
e 314 565
e 314 320
e 314 478
e 314 960
e 316 408
e 316 398
e 316 879
e 316 980
e 318 917
e 318 365
e 318 543
e 318 864
e 318 476
e 319 838
e 319 683
e 319 998
e 319 959
e 320 984
e 322 693
e 322 466
e 322 472
e 322 970
e 322 459
e 322 850
e 323 835
e 323 413
e 323 683
e 323 665
e 324 976
e 324 921
e 324 872
e 326 362
e 327 494
e 327 850
e 327 839
e 327 393
e 327 453
e 327 534
e 327 459
e 328 640
e 328 799
e 331 695
e 331 471
e 331 784
e 331 341
e 331 791
e 332 770
e 332 626
e 332 993
e 332 571
e 332 585
e 334 371
e 334 647
e 334 915
e 334 660
e 336 389
e 336 577
e 336 829
e 337 648
e 337 951
e 340 987
e 340 472
e 340 665
e 340 797
e 340 595
e 340 875
e 340 508
e 341 998
e 341 530
e 341 950
e 341 984
e 341 448
e 341 434
e 345 707
e 345 363
e 345 989
e 345 589
e 345 960
e 346 962
e 346 796
e 349 784
e 349 358
e 350 608
e 350 965
e 350 713
e 350 902
e 351 859
e 351 744
e 353 517
e 353 815
e 353 980
e 354 734
e 354 506
e 354 904
e 354 622
e 355 637
e 355 593
e 356 615
e 356 705
e 357 589
e 357 633
e 357 527
e 358 622
e 358 554
e 358 733
e 358 486
e 358 730
e 358 400
e 359 535
e 360 692
e 360 584
e 361 978
e 361 969
e 361 622
e 361 673
e 363 424
e 363 444
e 364 729
e 364 646
e 364 831
e 364 948
e 368 606
e 368 600
e 368 623
e 368 528
e 369 974
e 369 743
e 369 601
e 370 903
e 370 459
e 370 636
e 371 821
e 371 940
e 372 810
e 372 628
e 373 737
e 373 414
e 373 974
e 375 524
e 375 799
e 375 916
e 375 703
e 375 424
e 376 946
e 376 973
e 376 445
e 376 914
e 377 880
e 377 951
e 377 971
e 377 747
e 378 859
e 378 892
e 378 893
e 380 536
e 380 717
e 380 608
e 380 521
e 381 461
e 381 825
e 381 745
e 383 748
e 383 945
e 384 901
e 384 904
e 384 675
e 384 941
e 387 635
e 389 864
e 389 785
e 389 464
e 389 612
e 390 672
e 390 738
e 391 768
e 391 921
e 391 987
e 392 507
e 392 745
e 392 393
e 393 561
e 393 949
e 393 580
e 394 745
e 394 862
e 395 537
e 395 686
e 398 784
e 398 536
e 399 978
e 399 957
e 399 861
e 399 700
e 400 619
e 401 513
e 401 873
e 401 692
e 401 934
e 401 582
e 402 601
e 402 477
e 402 698
e 402 696
e 404 601
e 404 631
e 404 580
e 405 858
e 405 911
e 405 661
e 406 480
e 406 463
e 406 627
e 406 455
e 406 805
e 407 818
e 407 432
e 407 786
e 408 561
e 408 850
e 411 861
e 411 563
e 412 775
e 412 934
e 413 718
e 413 814
e 413 453
e 414 682
e 414 556
e 414 571
e 414 734
e 414 539
e 415 860
e 415 761
e 416 572
e 416 696
e 419 446
e 419 683
e 420 493
e 420 542
e 423 980
e 423 702
e 424 816
e 425 852
e 425 531
e 425 985
e 425 956
e 425 964
e 426 950
e 427 994
e 427 732
e 427 893
e 427 791
e 428 484
e 428 705
e 429 664
e 429 433
e 429 946
e 431 578
e 431 697
e 433 827
e 433 890
e 434 602
e 434 640
e 434 472
e 435 736
e 436 500
e 436 817
e 436 739
e 442 742
e 442 851
e 443 742
e 443 625
e 443 782
e 443 664
e 445 465
e 445 797
e 445 487
e 445 893
e 445 508
e 445 733
e 445 562
e 446 542
e 446 639
e 447 945
e 447 668
e 448 949
e 448 643
e 448 711
e 450 876
e 450 861
e 453 649
e 453 496
e 453 488
e 454 917
e 454 867
e 454 577
e 455 557
e 455 909
e 455 749
e 455 805
e 456 944
e 456 629
e 456 520
e 456 682
e 456 619
e 459 887
e 459 737
e 460 464
e 460 713
e 460 573
e 460 956
e 460 833
e 461 499
e 461 887
e 462 519
e 462 743
e 462 767
e 462 920
e 462 468
e 462 894
e 463 696
e 463 813
e 463 590
e 463 766
e 464 887
e 464 698
e 465 907
e 465 872
e 465 888
e 466 790
e 466 812
e 467 570
e 467 925
e 467 866
e 468 996
e 468 675
e 471 913
e 471 623
e 472 966
e 472 974
e 472 749
e 472 766
e 474 541
e 475 515
e 475 623
e 475 520
e 476 970
e 477 537
e 477 663
e 478 806
e 478 707
e 478 768
e 478 944
e 479 616
e 479 528
e 479 896
e 479 866
e 481 537
e 481 812
e 481 832
e 482 495
e 482 635
e 483 702
e 484 932
e 484 617
e 485 624
e 486 598
e 487 840
e 487 898
e 487 811
e 487 890
e 488 930
e 488 847
e 490 964
e 490 757
e 491 886
e 491 718
e 494 732
e 494 534
e 494 784
e 495 695
e 495 889
e 496 901
e 496 518
e 497 830
e 497 939
e 499 541
e 499 647
e 499 965
e 499 972
e 500 557
e 500 707
e 502 627
e 502 506
e 505 844
e 505 772
e 506 709
e 506 556
e 507 994
e 507 532
e 509 929
e 509 806
e 510 606
e 510 796
e 510 793
e 511 762
e 511 626
e 511 634
e 512 828
e 513 518
e 515 811
e 515 729
e 516 829
e 516 557
e 517 804
e 518 546
e 518 643
e 518 720
e 519 828
e 519 738
e 519 944
e 519 989
e 519 573
e 519 736
e 520 641
e 520 766
e 521 802
e 521 911
e 521 743
e 521 968
e 522 529
e 522 579
e 523 809
e 523 774
e 524 998
e 525 940
e 525 786
e 527 676
e 527 536
e 528 608
e 528 883
e 528 761
e 529 927
e 529 820
e 530 558
e 530 839
e 530 828
e 531 668
e 532 537
e 532 642
e 532 585
e 532 579
e 533 774
e 533 562
e 534 613
e 534 733
e 534 952
e 535 797
e 535 962
e 537 771
e 537 740
e 537 795
e 537 912
e 537 541
e 538 996
e 538 625
e 539 582
e 539 637
e 539 565
e 539 997
e 539 912
e 539 929
e 541 701
e 543 921
e 543 850
e 545 862
e 546 583
e 546 899
e 554 559
e 554 832
e 554 952
e 556 685
e 556 671
e 556 854
e 557 880
e 557 867
e 557 858
e 558 803
e 558 912
e 559 577
e 559 776
e 559 900
e 559 742
e 561 981
e 561 643
e 561 577
e 561 583
e 562 572
e 563 722
e 563 915
e 563 902
e 563 703
e 565 665
e 566 740
e 566 782
e 566 894
e 569 894
e 569 745
e 569 601
e 569 860
e 570 594
e 570 785
e 571 950
e 572 934
e 572 886
e 573 805
e 573 588
e 574 948
e 574 769
e 574 879
e 574 617
e 576 990
e 576 763
e 576 622
e 577 856
e 577 961
e 577 946
e 578 974
e 579 742
e 582 825
e 582 909
e 583 618
e 584 612
e 584 645
e 584 744
e 585 641
e 586 639
e 586 956
e 586 928
e 586 889
e 588 942
e 588 702
e 589 748
e 589 740
e 590 872
e 591 875
e 591 974
e 592 754
e 592 847
e 592 960
e 593 978
e 594 626
e 595 666
e 601 985
e 601 630
e 601 937
e 602 933
e 602 712
e 602 833
e 606 913
e 612 992
e 613 720
e 613 853
e 613 645
e 615 949
e 615 815
e 616 770
e 616 887
e 616 871
e 616 672
e 617 673
e 617 892
e 618 873
e 618 829
e 618 621
e 619 889
e 619 935
e 619 697
e 622 835
e 623 929
e 624 762
e 625 878
e 625 645
e 625 961
e 626 629
e 626 717
e 626 813
e 627 805
e 627 905
e 627 770
e 627 669
e 628 949
e 629 697
e 629 651
e 629 689
e 630 666
e 630 732
e 631 986
e 633 721
e 633 812
e 634 940
e 634 658
e 636 816
e 637 744
e 637 642
e 637 935
e 639 889
e 641 900
e 642 825
e 642 810
e 642 992
e 643 697
e 643 738
e 643 726
e 644 988
e 644 902
e 644 849
e 645 936
e 645 995
e 645 810
e 646 666
e 646 935
e 648 649
e 648 948
e 648 693
e 648 952
e 649 743
e 651 901
e 651 996
e 653 936
e 653 703
e 654 732
e 654 969
e 654 734
e 654 873
e 655 993
e 658 944
e 658 830
e 658 863
e 660 811
e 660 819
e 660 769
e 660 892
e 661 810
e 661 894
e 661 899
e 662 948
e 662 937
e 663 946
e 663 767
e 663 718
e 663 715
e 663 776
e 663 966
e 663 800
e 664 885
e 665 799
e 666 720
e 668 832
e 669 892
e 670 806
e 670 791
e 671 992
e 671 675
e 672 870
e 672 925
e 673 868
e 676 788
e 676 942
e 676 984
e 680 771
e 682 717
e 682 962
e 683 988
e 683 935
e 683 927
e 685 743
e 685 930
e 685 923
e 685 907
e 686 861
e 687 899
e 687 715
e 688 767
e 688 992
e 688 893
e 692 712
e 693 784
e 693 976
e 693 831
e 696 821
e 696 812
e 697 849
e 697 997
e 697 966
e 697 845
e 697 942
e 698 754
e 700 757
e 700 820
e 701 990
e 701 860
e 702 754
e 705 765
e 705 913
e 707 971
e 709 767
e 709 720
e 709 764
e 711 847
e 712 970
e 713 852
e 715 875
e 718 887
e 720 812
e 721 904
e 721 886
e 722 870
e 722 846
e 723 835
e 723 928
e 729 769
e 729 972
e 729 763
e 730 842
e 731 740
e 732 851
e 732 902
e 733 743
e 734 870
e 734 847
e 734 778
e 736 981
e 737 913
e 737 805
e 738 778
e 740 888
e 742 763
e 742 774
e 742 920
e 743 788
e 743 821
e 744 928
e 744 800
e 744 917
e 745 996
e 747 838
e 748 932
e 749 940
e 753 935
e 753 880
e 757 806
e 760 970
e 760 937
e 760 883
e 761 925
e 762 772
e 762 914
e 764 932
e 765 796
e 768 835
e 770 902
e 772 974
e 773 818
e 773 791
e 774 915
e 776 973
e 777 913
e 777 868
e 781 856
e 781 957
e 782 964
e 782 854
e 784 794
e 784 862
e 786 830
e 788 850
e 788 845
e 790 819
e 794 863
e 794 876
e 794 993
e 797 986
e 800 856
e 800 820
e 803 825
e 804 956
e 805 850
e 805 820
e 809 950
e 811 994
e 813 904
e 814 934
e 816 987
e 818 892
e 820 939
e 822 937
e 822 881
e 822 860
e 825 888
e 828 877
e 828 868
e 829 846
e 831 894
e 832 878
e 839 949
e 840 946
e 840 913
e 844 896
e 844 904
e 844 890
e 846 932
e 846 894
e 846 852
e 852 920
e 853 921
e 855 899
e 860 998
e 861 883
e 863 866
e 864 962
e 866 975
e 866 966
e 868 965
e 869 989
e 869 876
e 873 912
e 873 895
e 876 990
e 876 933
e 877 916
e 880 890
e 881 935
e 885 921
e 887 889
e 889 950
e 892 933
e 892 985
e 892 905
e 898 980
e 898 904
e 900 968
e 902 984
e 904 923
e 907 962
e 911 987
e 913 995
e 913 974
e 914 951
e 930 936
e 934 985
e 934 959
e 936 997
e 940 961
e 946 987
e 949 968
